# Objective value = 75005
z0 1
z1 0
z2 1
z3 0
z4 0
z5 0
z6 1
z7 0
z8 0
z9 0
z10 0
z11 1
z12 0
z13 0
z14 1
z15 0
z16 1
z17 1
z18 0
z19 0
z20 1
z21 0
z22 1
z23 0
z24 0
z25 0
z26 1
z27 0
z28 0
z29 1
z30 0
z31 0
z32 1
z33 0
z34 0
z35 1
z36 0
z37 0
z38 0
z39 0
z40 1
z41 0
z42 0
z43 0
z44 0
z45 0
z46 0
z47 1
z48 0
z49 0
z50 1
z51 0
z52 1
z53 1
z54 0
z55 0
z56 0
z57 0
z58 1
z59 0
z60 0
z61 0
z62 1
z63 0
z64 0
z65 0
z66 0
z67 0
z68 0
z69 0
z70 0
z71 0
z72 0
z73 1
z74 1
z75 0
z76 1
z77 0
z78 0
z79 0
z80 0
z81 0
z82 0
z83 0
z84 0
z85 0
z86 1
z87 1
z88 0
z89 0
z90 0
z91 0
z92 0
z93 0
z94 0
z95 0
z96 0
z97 0
z98 0
z99 0
z100 0
z101 1
z102 0
z103 0
z104 0
z105 0
z106 0
z107 1
z108 0
z109 1
z110 0
z111 0
z112 0
z113 0
z114 0
z115 0
z116 1
z117 0
z118 0
z119 0
z120 0
z121 0
z122 0
z123 0
z124 1
z125 1
z126 0
z127 0
z128 0
z129 0
z130 0
z131 1
z132 0
z133 0
z134 0
z135 1
z136 0
z137 0
z138 0
z139 1
z140 0
z141 0
z142 0
z143 0
z144 0
z145 0
z146 0
z147 0
z148 0
z149 0
z150 0
z151 1
z152 1
z153 0
z154 0
z155 0
z156 0
z157 0
z158 0
z159 1
z160 1
z161 0
z162 0
z163 1
z164 0
z165 1
z166 0
z167 0
z168 0
z169 0
z170 1
z171 0
z172 1
z173 0
z174 0
z175 0
z176 0
z177 0
z178 0
z179 0
z180 1
z181 1
z182 0
z183 0
z184 0
z185 1
z186 0
z187 0
z188 0
z189 0
z190 0
z191 1
z192 0
z193 0
z194 0
z195 0
z196 0
z197 1
z198 1
z199 0
z200 0
z201 0
z202 0
z203 0
z204 1
z205 1
z206 0
z207 1
z208 1
z209 0
z210 0
z211 0
z212 0
z213 0
z214 0
z215 0
z216 0
z217 1
z218 0
z219 0
z220 0
z221 0
z222 0
z223 1
z224 0
z225 0
z226 1
z227 0
z228 0
z229 0
z230 0
z231 1
z232 0
z233 0
z234 0
z235 0
z236 0
z237 0
z238 0
z239 0
z240 1
z241 0
z242 0
z243 0
z244 0
z245 1
z246 0
z247 0
z248 0
z249 1
z250 0
z251 1
z252 0
z253 0
z254 1
z255 0
z256 0
z257 0
z258 0
z259 0
z260 1
z261 1
z262 0
z263 0
z264 0
z265 0
z266 0
z267 0
z268 0
z269 0
z270 0
z271 0
z272 1
z273 0
z274 1
z275 1
z276 0
z277 0
z278 1
z279 1
z280 0
z281 0
z282 0
z283 1
z284 0
z285 0
z286 0
z287 0
z288 0
z289 1
z290 0
z291 0
z292 1
z293 0
z294 0
z295 0
z296 1
z297 0
z298 0
z299 1
z300 0
z301 1
z302 0
z303 0
z304 1
z305 1
z306 0
z307 0
z308 0
z309 0
z310 0
z311 0
z312 0
z313 0
z314 1
z315 1
z316 0
z317 1
z318 0
z319 0
z320 0
z321 1
z322 0
z323 0
z324 0
z325 0
z326 0
z327 0
z328 0
z329 1
z330 0
z331 0
z332 0
z333 1
z334 1
z335 0
z336 0
z337 1
z338 0
z339 0
z340 0
z341 0
z342 0
z343 1
z344 1
z345 0
z346 0
z347 0
z348 0
z349 1
z350 0
z351 0
z352 1
z353 0
z354 0
z355 0
z356 0
z357 0
z358 0
z359 0
z360 0
z361 1
z362 0
z363 0
z364 0
z365 0
z366 1
z367 1
z368 0
z369 0
z370 1
z371 0
z372 1
z373 1
z374 0
z375 1
z376 0
z377 0
z378 0
z379 1
z380 0
z381 0
z382 1
z383 0
z384 0
z385 1
z386 0
z387 0
z388 0
z389 0
z390 0
z391 0
z392 0
z393 0
z394 0
z395 1
z396 1
z397 0
z398 0
z399 1
z400 0
z401 0
z402 1
z403 0
z404 0
z405 0
z406 0
z407 0
z408 0
z409 1
z410 1
z411 0
z412 0
z413 0
z414 0
z415 0
z416 0
z417 0
z418 0
z419 0
z420 1
z421 0
z422 1
z423 0
z424 0
z425 0
z426 1
z427 0
z428 0
z429 0
z430 1
z431 0
z432 0
z433 0
z434 0
z435 0
z436 1
z437 0
z438 0
z439 0
z440 1
z441 0
z442 0
z443 1
z444 0
z445 0
z446 0
z447 0
z448 1
z449 0
z450 0
z451 1
z452 0
